NAME : morphed20-5-14
COMMENT : Generated using the function morphInstances from the R-package netgen (Bossek,2015) - Number of clusters: 5 Alpha: 0.5
TYPE : TSP
DIMENSION : 20
EDGE_WEIGHT_TYPE : EUC_2D
NODE_COORD_SECTION
1 20.6033248429 39.2627245814
2 52.2681736812 27.4166848112
3 80.9017142487 45.3491814904
4 55.5043497837 70.3393984491
5 97.6441136412 76.1560281899
6 28.2505388306 54.8065997255
7 87.590696979 27.5391230352
8 29.1865055742 48.2839432775
9 45.7412261797 72.1768999905
10 36.8542608433 4.2343690327
11 92.886020121 86.7414655191
12 22.3321739799 10.3947256095
13 46.2795744558 89.6414431215
14 78.2406270621 53.0612280065
15 89.4630941134 92.8509158902
16 55.5285897171 7.0623291117
17 24.8416747701 50.0347114441
18 66.0746020923 42.6360885947
19 82.5536227402 88.7759066161
20 54.0707485591 64.9375510376
EOF
